131
180
98
413
404
660
435
601
199
567
267
597
208
246
323
618
305
1
44
697
448
567
140
208
190
371
490
61
121
51
678
661
160
294
522
468
320
403
243
651

371
511
277
1170
1146

536
737
400
1688
1653

3008.4

94
129
70
295
289
471
311
429
142
405
191
426
149
176
231
441
218
1
32
498
320
405
100
149
136
265
350
44
87
37
484
472
115
210
373
334
229
288
174
465
